 20 5 2
 1 2 0 5 4 10 3 6 2 3
 0 2 3 5 4 2 2 3 1 7
 3 4 4 10 1 4 2 3 0 1
 1 8 0 5 4 8 2 7 3 8
 0 8 3 3 2 6 1 2 4 4
 1 5 2 4 4 8 0 9 3 6
 3 7 4 8 1 9 2 9 0 9
 2 4 0 6 1 4 3 2 4 8
 3 2 1 5 4 3 0 4 2 10
 4 8 3 8 2 4 1 8 0 10
 1 2 0 5 4 10 3 6 2 3
 0 2 3 5 4 2 2 3 1 7
 3 4 4 10 1 4 2 3 0 1
 1 8 0 6 4 8 2 7 3 8
 0 8 3 3 2 6 1 2 4 4
 1 5 2 4 4 8 0 10 3 6
 3 7 4 8 1 9 2 9 0 9
 2 4 0 6 1 4 3 2 4 8
 3 2 1 5 4 3 0 4 2 10
 4 8 3 8 2 4 1 8 0 10
